T = 6;

D = 8;

Lim = 20;

duracion = [3,8,8,6,3,4];
      
      
dep = [| 0, 0, 0, 0, 0, 0
       | 0, 0, 0, 0, 0, 0
       | 0, 0, 0, 1, 1, 0
       | 0, 0, 0, 0, 0, 0
       | 1, 0, 0, 0, 0, 0
       | 1, 0, 0, 0, 0, 0 |]; 